p cnf 220 1320
-1 -101 0
-1 -102 0
101 -101 0
102 -102 0
-21 -107 0
-21 -108 0
107 -107 0
108 -108 0
-41 -113 0
-41 -114 0
113 -113 0
114 -114 0
-61 -119 0
-61 -120 0
119 -119 0
120 -120 0
-81 -125 0
-81 -126 0
125 -125 0
126 -126 0
-2 -101 0
-2 -102 0
101 -101 0
102 -102 0
-22 -107 0
-22 -108 0
107 -107 0
108 -108 0
-42 -113 0
-42 -114 0
113 -113 0
114 -114 0
-62 -119 0
-62 -120 0
119 -119 0
120 -120 0
-82 -125 0
-82 -126 0
125 -125 0
126 -126 0
-3 -101 0
-3 -102 0
101 -101 0
102 -102 0
-23 -107 0
-23 -108 0
107 -107 0
108 -108 0
-43 -113 0
-43 -114 0
113 -113 0
114 -114 0
-63 -119 0
-63 -120 0
119 -119 0
120 -120 0
-83 -125 0
-83 -126 0
125 -125 0
126 -126 0
-4 -101 0
-4 -102 0
101 -101 0
102 -102 0
-24 -107 0
-24 -108 0
107 -107 0
108 -108 0
-44 -113 0
-44 -114 0
113 -113 0
114 -114 0
-64 -119 0
-64 -120 0
119 -119 0
120 -120 0
-84 -125 0
-84 -126 0
125 -125 0
126 -126 0
5 -101 0
5 -102 0
101 -101 0
102 -102 0
25 -107 0
25 -108 0
107 -107 0
108 -108 0
45 -113 0
45 -114 0
113 -113 0
114 -114 0
65 -119 0
65 -120 0
119 -119 0
120 -120 0
85 -125 0
85 -126 0
125 -125 0
126 -126 0
6 -101 0
6 -102 0
101 -101 0
102 -102 0
26 -107 0
26 -108 0
107 -107 0
108 -108 0
46 -113 0
46 -114 0
113 -113 0
114 -114 0
66 -119 0
66 -120 0
119 -119 0
120 -120 0
86 -125 0
86 -126 0
125 -125 0
126 -126 0
7 -101 0
7 -102 0
101 -101 0
102 -102 0
27 -107 0
27 -108 0
107 -107 0
108 -108 0
47 -113 0
47 -114 0
113 -113 0
114 -114 0
67 -119 0
67 -120 0
119 -119 0
120 -120 0
87 -125 0
87 -126 0
125 -125 0
126 -126 0
8 -101 0
8 -102 0
101 -101 0
102 -102 0
28 -107 0
28 -108 0
107 -107 0
108 -108 0
48 -113 0
48 -114 0
113 -113 0
114 -114 0
68 -119 0
68 -120 0
119 -119 0
120 -120 0
88 -125 0
88 -126 0
125 -125 0
126 -126 0
-9 -101 0
-9 -102 0
101 -101 0
102 -102 0
-29 -107 0
-29 -108 0
107 -107 0
108 -108 0
-49 -113 0
-49 -114 0
113 -113 0
114 -114 0
-69 -119 0
-69 -120 0
119 -119 0
120 -120 0
-89 -125 0
-89 -126 0
125 -125 0
126 -126 0
-10 -101 0
-10 -102 0
101 -101 0
102 -102 0
-30 -107 0
-30 -108 0
107 -107 0
108 -108 0
-50 -113 0
-50 -114 0
113 -113 0
114 -114 0
-70 -119 0
-70 -120 0
119 -119 0
120 -120 0
-90 -125 0
-90 -126 0
125 -125 0
126 -126 0
11 -101 0
11 -102 0
101 -101 0
102 -102 0
31 -107 0
31 -108 0
107 -107 0
108 -108 0
51 -113 0
51 -114 0
113 -113 0
114 -114 0
71 -119 0
71 -120 0
119 -119 0
120 -120 0
91 -125 0
91 -126 0
125 -125 0
126 -126 0
12 -131 -101 0
-12 131 -101 0
12 131 -102 0
-12 -131 -102 0
32 -131 -107 0
-32 131 -107 0
32 131 -108 0
-32 -131 -108 0
52 -131 -113 0
-52 131 -113 0
52 131 -114 0
-52 -131 -114 0
72 -131 -119 0
-72 131 -119 0
72 131 -120 0
-72 -131 -120 0
92 -131 -125 0
-92 131 -125 0
92 131 -126 0
-92 -131 -126 0
13 -101 0
13 -102 0
101 -101 0
102 -102 0
33 -107 0
33 -108 0
107 -107 0
108 -108 0
53 -113 0
53 -114 0
113 -113 0
114 -114 0
73 -119 0
73 -120 0
119 -119 0
120 -120 0
93 -125 0
93 -126 0
125 -125 0
126 -126 0
14 -101 0
14 -102 0
101 -101 0
102 -102 0
34 -107 0
34 -108 0
107 -107 0
108 -108 0
54 -113 0
54 -114 0
113 -113 0
114 -114 0
74 -119 0
74 -120 0
119 -119 0
120 -120 0
94 -125 0
94 -126 0
125 -125 0
126 -126 0
-15 -101 0
-15 -102 0
101 -101 0
102 -102 0
-35 -107 0
-35 -108 0
107 -107 0
108 -108 0
-55 -113 0
-55 -114 0
113 -113 0
114 -114 0
-75 -119 0
-75 -120 0
119 -119 0
120 -120 0
-95 -125 0
-95 -126 0
125 -125 0
126 -126 0
16 -101 0
16 -102 0
101 -101 0
102 -102 0
36 -107 0
36 -108 0
107 -107 0
108 -108 0
56 -113 0
56 -114 0
113 -113 0
114 -114 0
76 -119 0
76 -120 0
119 -119 0
120 -120 0
96 -125 0
96 -126 0
125 -125 0
126 -126 0
-17 -101 0
-17 -102 0
101 -101 0
102 -102 0
-37 -107 0
-37 -108 0
107 -107 0
108 -108 0
-57 -113 0
-57 -114 0
113 -113 0
114 -114 0
-77 -119 0
-77 -120 0
119 -119 0
120 -120 0
-97 -125 0
-97 -126 0
125 -125 0
126 -126 0
-18 -101 0
-18 -102 0
101 -101 0
102 -102 0
-38 -107 0
-38 -108 0
107 -107 0
108 -108 0
-58 -113 0
-58 -114 0
113 -113 0
114 -114 0
-78 -119 0
-78 -120 0
119 -119 0
120 -120 0
-98 -125 0
-98 -126 0
125 -125 0
126 -126 0
19 -101 0
19 -102 0
101 -101 0
102 -102 0
39 -107 0
39 -108 0
107 -107 0
108 -108 0
59 -113 0
59 -114 0
113 -113 0
114 -114 0
79 -119 0
79 -120 0
119 -119 0
120 -120 0
99 -125 0
99 -126 0
125 -125 0
126 -126 0
-20 -101 0
-20 -102 0
101 -101 0
102 -102 0
-40 -107 0
-40 -108 0
107 -107 0
108 -108 0
-60 -113 0
-60 -114 0
113 -113 0
114 -114 0
-80 -119 0
-80 -120 0
119 -119 0
120 -120 0
-100 -125 0
-100 -126 0
125 -125 0
126 -126 0
-191 101 0
191 -101 0
-192 102 0
191 -102 0
-191 -101 0
-192 -102 0
-197 101 191 0
197 -101 0
197 -191 0
-198 102 192 0
198 -102 0
198 -192 0
-197 -107 0
-198 -108 0
-203 107 197 0
203 -107 0
203 -197 0
-204 108 198 0
204 -108 0
204 -198 0
-203 -113 0
-204 -114 0
-209 113 203 0
209 -113 0
209 -203 0
-210 114 204 0
210 -114 0
210 -204 0
-209 -119 0
-210 -120 0
-215 119 209 0
215 -119 0
215 -209 0
-216 120 210 0
216 -120 0
216 -210 0
-215 -125 0
-216 -126 0
215 0
216 0
1 -103 0
1 -104 0
103 -103 0
104 -104 0
21 -109 0
21 -110 0
109 -109 0
110 -110 0
41 -115 0
41 -116 0
115 -115 0
116 -116 0
61 -121 0
61 -122 0
121 -121 0
122 -122 0
81 -127 0
81 -128 0
127 -127 0
128 -128 0
2 -103 0
2 -104 0
103 -103 0
104 -104 0
22 -109 0
22 -110 0
109 -109 0
110 -110 0
42 -115 0
42 -116 0
115 -115 0
116 -116 0
62 -121 0
62 -122 0
121 -121 0
122 -122 0
82 -127 0
82 -128 0
127 -127 0
128 -128 0
3 -132 -103 0
-3 132 -103 0
3 132 -104 0
-3 -132 -104 0
23 -132 -109 0
-23 132 -109 0
23 132 -110 0
-23 -132 -110 0
43 -132 -115 0
-43 132 -115 0
43 132 -116 0
-43 -132 -116 0
63 -132 -121 0
-63 132 -121 0
63 132 -122 0
-63 -132 -122 0
83 -132 -127 0
-83 132 -127 0
83 132 -128 0
-83 -132 -128 0
4 -103 0
4 -104 0
103 -103 0
104 -104 0
24 -109 0
24 -110 0
109 -109 0
110 -110 0
44 -115 0
44 -116 0
115 -115 0
116 -116 0
64 -121 0
64 -122 0
121 -121 0
122 -122 0
84 -127 0
84 -128 0
127 -127 0
128 -128 0
5 -103 0
5 -104 0
103 -103 0
104 -104 0
25 -109 0
25 -110 0
109 -109 0
110 -110 0
45 -115 0
45 -116 0
115 -115 0
116 -116 0
65 -121 0
65 -122 0
121 -121 0
122 -122 0
85 -127 0
85 -128 0
127 -127 0
128 -128 0
6 -103 0
6 -104 0
103 -103 0
104 -104 0
26 -109 0
26 -110 0
109 -109 0
110 -110 0
46 -115 0
46 -116 0
115 -115 0
116 -116 0
66 -121 0
66 -122 0
121 -121 0
122 -122 0
86 -127 0
86 -128 0
127 -127 0
128 -128 0
7 -103 0
7 -104 0
103 -103 0
104 -104 0
27 -109 0
27 -110 0
109 -109 0
110 -110 0
47 -115 0
47 -116 0
115 -115 0
116 -116 0
67 -121 0
67 -122 0
121 -121 0
122 -122 0
87 -127 0
87 -128 0
127 -127 0
128 -128 0
8 -103 0
8 -104 0
103 -103 0
104 -104 0
28 -109 0
28 -110 0
109 -109 0
110 -110 0
48 -115 0
48 -116 0
115 -115 0
116 -116 0
68 -121 0
68 -122 0
121 -121 0
122 -122 0
88 -127 0
88 -128 0
127 -127 0
128 -128 0
9 -103 0
9 -104 0
103 -103 0
104 -104 0
29 -109 0
29 -110 0
109 -109 0
110 -110 0
49 -115 0
49 -116 0
115 -115 0
116 -116 0
69 -121 0
69 -122 0
121 -121 0
122 -122 0
89 -127 0
89 -128 0
127 -127 0
128 -128 0
10 -103 0
10 -104 0
103 -103 0
104 -104 0
30 -109 0
30 -110 0
109 -109 0
110 -110 0
50 -115 0
50 -116 0
115 -115 0
116 -116 0
70 -121 0
70 -122 0
121 -121 0
122 -122 0
90 -127 0
90 -128 0
127 -127 0
128 -128 0
11 -103 0
11 -104 0
103 -103 0
104 -104 0
31 -109 0
31 -110 0
109 -109 0
110 -110 0
51 -115 0
51 -116 0
115 -115 0
116 -116 0
71 -121 0
71 -122 0
121 -121 0
122 -122 0
91 -127 0
91 -128 0
127 -127 0
128 -128 0
12 -103 0
12 -104 0
103 -103 0
104 -104 0
32 -109 0
32 -110 0
109 -109 0
110 -110 0
52 -115 0
52 -116 0
115 -115 0
116 -116 0
72 -121 0
72 -122 0
121 -121 0
122 -122 0
92 -127 0
92 -128 0
127 -127 0
128 -128 0
13 -103 0
13 -104 0
103 -103 0
104 -104 0
33 -109 0
33 -110 0
109 -109 0
110 -110 0
53 -115 0
53 -116 0
115 -115 0
116 -116 0
73 -121 0
73 -122 0
121 -121 0
122 -122 0
93 -127 0
93 -128 0
127 -127 0
128 -128 0
14 -133 -103 0
-14 133 -103 0
14 133 -104 0
-14 -133 -104 0
34 -133 -109 0
-34 133 -109 0
34 133 -110 0
-34 -133 -110 0
54 -133 -115 0
-54 133 -115 0
54 133 -116 0
-54 -133 -116 0
74 -133 -121 0
-74 133 -121 0
74 133 -122 0
-74 -133 -122 0
94 -133 -127 0
-94 133 -127 0
94 133 -128 0
-94 -133 -128 0
15 -103 0
15 -104 0
103 -103 0
104 -104 0
35 -109 0
35 -110 0
109 -109 0
110 -110 0
55 -115 0
55 -116 0
115 -115 0
116 -116 0
75 -121 0
75 -122 0
121 -121 0
122 -122 0
95 -127 0
95 -128 0
127 -127 0
128 -128 0
16 -134 -103 0
-16 134 -103 0
16 134 -104 0
-16 -134 -104 0
36 -134 -109 0
-36 134 -109 0
36 134 -110 0
-36 -134 -110 0
56 -134 -115 0
-56 134 -115 0
56 134 -116 0
-56 -134 -116 0
76 -134 -121 0
-76 134 -121 0
76 134 -122 0
-76 -134 -122 0
96 -134 -127 0
-96 134 -127 0
96 134 -128 0
-96 -134 -128 0
17 -103 0
17 -104 0
103 -103 0
104 -104 0
37 -109 0
37 -110 0
109 -109 0
110 -110 0
57 -115 0
57 -116 0
115 -115 0
116 -116 0
77 -121 0
77 -122 0
121 -121 0
122 -122 0
97 -127 0
97 -128 0
127 -127 0
128 -128 0
18 -103 0
18 -104 0
103 -103 0
104 -104 0
38 -109 0
38 -110 0
109 -109 0
110 -110 0
58 -115 0
58 -116 0
115 -115 0
116 -116 0
78 -121 0
78 -122 0
121 -121 0
122 -122 0
98 -127 0
98 -128 0
127 -127 0
128 -128 0
19 -103 0
19 -104 0
103 -103 0
104 -104 0
39 -109 0
39 -110 0
109 -109 0
110 -110 0
59 -115 0
59 -116 0
115 -115 0
116 -116 0
79 -121 0
79 -122 0
121 -121 0
122 -122 0
99 -127 0
99 -128 0
127 -127 0
128 -128 0
20 -103 0
20 -104 0
103 -103 0
104 -104 0
40 -109 0
40 -110 0
109 -109 0
110 -110 0
60 -115 0
60 -116 0
115 -115 0
116 -116 0
80 -121 0
80 -122 0
121 -121 0
122 -122 0
100 -127 0
100 -128 0
127 -127 0
128 -128 0
-193 103 0
193 -103 0
-194 104 0
193 -104 0
-193 -103 0
-194 -104 0
-199 103 193 0
199 -103 0
199 -193 0
-200 104 194 0
200 -104 0
200 -194 0
-199 -109 0
-200 -110 0
-205 109 199 0
205 -109 0
205 -199 0
-206 110 200 0
206 -110 0
206 -200 0
-205 -115 0
-206 -116 0
-211 115 205 0
211 -115 0
211 -205 0
-212 116 206 0
212 -116 0
212 -206 0
-211 -121 0
-212 -122 0
-217 121 211 0
217 -121 0
217 -211 0
-218 122 212 0
218 -122 0
218 -212 0
-217 -127 0
-218 -128 0
217 0
218 0
1 -135 -105 0
-1 135 -105 0
1 135 -106 0
-1 -135 -106 0
21 -135 -111 0
-21 135 -111 0
21 135 -112 0
-21 -135 -112 0
41 -135 -117 0
-41 135 -117 0
41 135 -118 0
-41 -135 -118 0
61 -135 -123 0
-61 135 -123 0
61 135 -124 0
-61 -135 -124 0
81 -135 -129 0
-81 135 -129 0
81 135 -130 0
-81 -135 -130 0
2 -136 -105 0
-2 136 -105 0
2 136 -106 0
-2 -136 -106 0
22 -136 -111 0
-22 136 -111 0
22 136 -112 0
-22 -136 -112 0
42 -136 -117 0
-42 136 -117 0
42 136 -118 0
-42 -136 -118 0
62 -136 -123 0
-62 136 -123 0
62 136 -124 0
-62 -136 -124 0
82 -136 -129 0
-82 136 -129 0
82 136 -130 0
-82 -136 -130 0
-3 -105 0
-3 -106 0
105 -105 0
106 -106 0
-23 -111 0
-23 -112 0
111 -111 0
112 -112 0
-43 -117 0
-43 -118 0
117 -117 0
118 -118 0
-63 -123 0
-63 -124 0
123 -123 0
124 -124 0
-83 -129 0
-83 -130 0
129 -129 0
130 -130 0
4 -137 -105 0
-4 137 -105 0
4 137 -106 0
-4 -137 -106 0
24 -137 -111 0
-24 137 -111 0
24 137 -112 0
-24 -137 -112 0
44 -137 -117 0
-44 137 -117 0
44 137 -118 0
-44 -137 -118 0
64 -137 -123 0
-64 137 -123 0
64 137 -124 0
-64 -137 -124 0
84 -137 -129 0
-84 137 -129 0
84 137 -130 0
-84 -137 -130 0
5 -138 -105 0
-5 138 -105 0
5 138 -106 0
-5 -138 -106 0
25 -138 -111 0
-25 138 -111 0
25 138 -112 0
-25 -138 -112 0
45 -138 -117 0
-45 138 -117 0
45 138 -118 0
-45 -138 -118 0
65 -138 -123 0
-65 138 -123 0
65 138 -124 0
-65 -138 -124 0
85 -138 -129 0
-85 138 -129 0
85 138 -130 0
-85 -138 -130 0
6 -105 0
6 -106 0
105 -105 0
106 -106 0
26 -111 0
26 -112 0
111 -111 0
112 -112 0
46 -117 0
46 -118 0
117 -117 0
118 -118 0
66 -123 0
66 -124 0
123 -123 0
124 -124 0
86 -129 0
86 -130 0
129 -129 0
130 -130 0
7 -105 0
7 -106 0
105 -105 0
106 -106 0
27 -111 0
27 -112 0
111 -111 0
112 -112 0
47 -117 0
47 -118 0
117 -117 0
118 -118 0
67 -123 0
67 -124 0
123 -123 0
124 -124 0
87 -129 0
87 -130 0
129 -129 0
130 -130 0
8 -105 0
8 -106 0
105 -105 0
106 -106 0
28 -111 0
28 -112 0
111 -111 0
112 -112 0
48 -117 0
48 -118 0
117 -117 0
118 -118 0
68 -123 0
68 -124 0
123 -123 0
124 -124 0
88 -129 0
88 -130 0
129 -129 0
130 -130 0
9 -139 -105 0
-9 139 -105 0
9 139 -106 0
-9 -139 -106 0
29 -139 -111 0
-29 139 -111 0
29 139 -112 0
-29 -139 -112 0
49 -139 -117 0
-49 139 -117 0
49 139 -118 0
-49 -139 -118 0
69 -139 -123 0
-69 139 -123 0
69 139 -124 0
-69 -139 -124 0
89 -139 -129 0
-89 139 -129 0
89 139 -130 0
-89 -139 -130 0
10 -105 0
10 -106 0
105 -105 0
106 -106 0
30 -111 0
30 -112 0
111 -111 0
112 -112 0
50 -117 0
50 -118 0
117 -117 0
118 -118 0
70 -123 0
70 -124 0
123 -123 0
124 -124 0
90 -129 0
90 -130 0
129 -129 0
130 -130 0
11 -105 0
11 -106 0
105 -105 0
106 -106 0
31 -111 0
31 -112 0
111 -111 0
112 -112 0
51 -117 0
51 -118 0
117 -117 0
118 -118 0
71 -123 0
71 -124 0
123 -123 0
124 -124 0
91 -129 0
91 -130 0
129 -129 0
130 -130 0
-12 -105 0
-12 -106 0
105 -105 0
106 -106 0
-32 -111 0
-32 -112 0
111 -111 0
112 -112 0
-52 -117 0
-52 -118 0
117 -117 0
118 -118 0
-72 -123 0
-72 -124 0
123 -123 0
124 -124 0
-92 -129 0
-92 -130 0
129 -129 0
130 -130 0
13 -105 0
13 -106 0
105 -105 0
106 -106 0
33 -111 0
33 -112 0
111 -111 0
112 -112 0
53 -117 0
53 -118 0
117 -117 0
118 -118 0
73 -123 0
73 -124 0
123 -123 0
124 -124 0
93 -129 0
93 -130 0
129 -129 0
130 -130 0
14 -105 0
14 -106 0
105 -105 0
106 -106 0
34 -111 0
34 -112 0
111 -111 0
112 -112 0
54 -117 0
54 -118 0
117 -117 0
118 -118 0
74 -123 0
74 -124 0
123 -123 0
124 -124 0
94 -129 0
94 -130 0
129 -129 0
130 -130 0
-15 -105 0
-15 -106 0
105 -105 0
106 -106 0
-35 -111 0
-35 -112 0
111 -111 0
112 -112 0
-55 -117 0
-55 -118 0
117 -117 0
118 -118 0
-75 -123 0
-75 -124 0
123 -123 0
124 -124 0
-95 -129 0
-95 -130 0
129 -129 0
130 -130 0
16 -105 0
16 -106 0
105 -105 0
106 -106 0
36 -111 0
36 -112 0
111 -111 0
112 -112 0
56 -117 0
56 -118 0
117 -117 0
118 -118 0
76 -123 0
76 -124 0
123 -123 0
124 -124 0
96 -129 0
96 -130 0
129 -129 0
130 -130 0
-17 -105 0
-17 -106 0
105 -105 0
106 -106 0
-37 -111 0
-37 -112 0
111 -111 0
112 -112 0
-57 -117 0
-57 -118 0
117 -117 0
118 -118 0
-77 -123 0
-77 -124 0
123 -123 0
124 -124 0
-97 -129 0
-97 -130 0
129 -129 0
130 -130 0
-18 -105 0
-18 -106 0
105 -105 0
106 -106 0
-38 -111 0
-38 -112 0
111 -111 0
112 -112 0
-58 -117 0
-58 -118 0
117 -117 0
118 -118 0
-78 -123 0
-78 -124 0
123 -123 0
124 -124 0
-98 -129 0
-98 -130 0
129 -129 0
130 -130 0
19 -105 0
19 -106 0
105 -105 0
106 -106 0
39 -111 0
39 -112 0
111 -111 0
112 -112 0
59 -117 0
59 -118 0
117 -117 0
118 -118 0
79 -123 0
79 -124 0
123 -123 0
124 -124 0
99 -129 0
99 -130 0
129 -129 0
130 -130 0
-20 -105 0
-20 -106 0
105 -105 0
106 -106 0
-40 -111 0
-40 -112 0
111 -111 0
112 -112 0
-60 -117 0
-60 -118 0
117 -117 0
118 -118 0
-80 -123 0
-80 -124 0
123 -123 0
124 -124 0
-100 -129 0
-100 -130 0
129 -129 0
130 -130 0
-195 105 0
195 -105 0
-196 106 0
195 -106 0
-195 -105 0
-196 -106 0
-201 105 195 0
201 -105 0
201 -195 0
-202 106 196 0
202 -106 0
202 -196 0
-201 -111 0
-202 -112 0
-207 111 201 0
207 -111 0
207 -201 0
-208 112 202 0
208 -112 0
208 -202 0
-207 -117 0
-208 -118 0
-213 117 207 0
213 -117 0
213 -207 0
-214 118 208 0
214 -118 0
214 -208 0
-213 -123 0
-214 -124 0
-219 123 213 0
219 -123 0
219 -213 0
-220 124 214 0
220 -124 0
220 -214 0
-219 -129 0
-220 -130 0
219 0
220 0
